c Random generated cnf formula, satisfiable: true
p cnf 10 50
10 7 2 0
-5 -7 6 0
-1 -10 6 0
-9 4 6 0
-10 5 -7 0
-9 5 2 0
5 -1 4 0
-8 10 -2 0
-1 3 9 0
-4 -1 10 0
-2 3 7 0
4 7 -3 0
9 5 10 0
-6 10 -4 0
9 8 6 0
-1 6 9 0
3 -5 9 0
10 -5 -4 0
-7 -3 -5 0
4 7 -1 0
9 -2 -3 0
-5 1 -9 0
6 -1 2 0
7 -8 10 0
7 -1 5 0
-4 5 -2 0
-10 7 -2 0
-5 -4 -1 0
5 1 3 0
-8 1 -5 0
7 4 3 0
9 1 8 0
-5 3 2 0
3 8 -4 0
-8 -7 -1 0
-9 -4 6 0
-10 -4 -8 0
-5 -8 6 0
7 -8 10 0
10 -2 7 0
3 9 -2 0
4 -8 9 0
-5 -9 -7 0
-4 7 -9 0
-5 -10 9 0
6 -5 -2 0
-8 6 7 0
-4 1 10 0
3 -6 4 0
-10 2 7 0
